20
88.8
0 19 47.74 4.0
1 18 47.79 3.95
2 17 47.22 3.85
3 16 48.51 3.77
4 15 48.22 3.71
5 14 47.44 3.62
6 13 48.06 3.49
7 12 48.54 3.38
8 11 47.22 3.24
9 10 49.76 3.27
10 9 48.38 3.36
11 8 47.68 3.49
12 7 47.96 3.6
13 6 49.81 3.33
14 5 48.15 3.01
15 4 46.51 2.57
16 3 52.07 2.45
17 2 52.32 2.39
18 1 50.2 2.38
